language Essence 1.3

letting class be function(1 --> 1, 2 --> 2, 3 --> 1, 4 --> 1)
letting deck_length be 15
letting deck_width be 63
letting length be function(1 --> 8, 2 --> 14, 3 --> 13, 4 --> 13)
letting n_classes be 2
letting n_containers be 4
letting separation be function()
letting width be function(1 --> 4, 2 --> 16, 3 --> 11, 4 --> 5)
